unsat
(:max-memory          18.08
 :memory              17.92
 :nlsat-conflicts     4
 :nlsat-learned-added 3
 :nlsat-propagations  20
 :nlsat-stages        5
 :num-allocs          5726
 :rlimit-count        2224
 :time                0.00
 :total-time          0.01)
